data;
set WEIGHTS := x0 x1 x2 x3 x4 x5 x6 x7 x8 x9 x10 x11 x12 x13 x14 x15 x16 x17 x18 x19;
param:  cost :=
  x0  202
  x1  890
  x2  474
  x3  702
  x4  904
  x5  415
  x6  120
  x7  954
  x8  417
  x9  602
  x10  232
  x11  94
  x12  951
  x13  49
  x14  554
  x15  984
  x16  281
  x17  466
  x18  517
  x19  304;
param cap := 5000;